4199
4164
4199
4203
4252
4246
4192
4204
4180
4225
4198
4227
4182
4232
4128
4194
4233
4304
4280
4215
4215
4230
4268
4226
4179
4237
4215
4199
4256
4167
4274
4201
4225
4245
4235
4236
4284
4265
4217
4257
4269
4279
4240
4229
4220
4247
4190
4178
4198
4222
4231
4228
4155
4253
4248
4224
4196
4242
4240
4174
4205
4251
4230
4256
4214
4268
4116
4262
4196
4252
4152
4222
4216
4229
4209
4209
4272
4280
4254
4218
4242
4255
4227
4293
4202
4261
4255
4252
4221
4167
4259
4241
4191
4260
4207
4150
4286
4190
4212
4243
